7,1,6,2,1,2,4,1,3,4,2,3,8,5,9,4,5,5;1,1,3,1,6,4,8,4,9,3,4,4,7,3,5,4,2,5;9,1,8,2,10,1,3,3,6,5,1,4,2,4,4,5,10,5,7,5;6,1,2,2,9,2,3,2,8,3,7,2,4,2,10,2,5,3,10,3,1,5;8,1,5,1,2,1,5,2,6,3,1,3,4,3,3,5,10,4,7,4,9,5;
